NAME : qa194
COMMENT : 194 locations in Qatar
COMMENT : Derived from National Imagery and Mapping Agency data
TYPE : TSP
ROBOT : 1
DIMENSION : 10
EDGE_WEIGHT_TYPE : EUC_2D
ROBOT_BUDGET_SECTION
1 200000
NODE_COORD_SECTION
1 23.482 91.453 21.469 3
2 372.5619 462.3362 21.0724 5
3 329.689 740.0317 29.5393 3
4 350.0607 253.3343 31.5542 7
5 881.9759 136.3743 32.7113 9
6 160.0329 291.7747 23.6752 3
7 704.6247 267.9817 23.0952 1
8 568.0235 598.6701 26.9477 4
9 343.284 337.0802 27.7408 3
10 956.7525 463.8406 27.2462 9
EOF
